x = 22;
y = 13;
c = 80;
n = 72;

p = [30  59  15  43  82  21  29  97  87  94  54  21  37  95  45  51  28  64  88  77  58  59  24  96  16  17  26  32  33  45  25  44  74  15  73  43  36  32  35  22  74  31  73  48  47  53  38  57  59  41  17  63  80  37  92  14  67  49  31  86  34  63  27  40  48  96  82  69  52  97  73  46];
w = [5  3  8  1  7  5  8  4  6  5  6  4  9  4  4  2  8  8  9  5  9  6  9  9  5  6  2  4  4  8  8  3  1  4  2  1  10  1  1  4  6  2  9  9  1  2  3  5  10  3  6  9  8  1  5  6  3  9  10  9  5  1  10  2  4  3  5  9  7  9  8  6];
s = [4  12  8  10  3  11  12  12  7  1  7  7  8  8  4  1  6  9  6  5  5  5  3  5  11  5  12  2  6  8  9  9  5  6  13  5  4  5  3  11  11  1  6  3  3  5  2  2  8  7  4  4  6  11  8  1  9  8  13  5  5  5  8  1  11  11  12  12  10  6  13  12];
